; PUSH cw_4 DUP1 SWAP1 => PUSH cw_4 PUSH cw_4
(set-option :produce-proofs true)
; 
(set-info :status unknown)
(declare-fun storage_t ((_ BitVec 256) Int (_ BitVec 256)) (_ BitVec 256))
(declare-fun w_4 () (_ BitVec 256))
(declare-fun storage_s ((_ BitVec 256) Int (_ BitVec 256)) (_ BitVec 256))
(declare-fun exc_halt_t (Int) Bool)
(declare-fun exc_halt_s (Int) Bool)
(declare-fun sc_t (Int) (_ BitVec 6))
(declare-fun stack_t ((_ BitVec 256) Int (_ BitVec 6)) (_ BitVec 256))
(declare-fun stack_s ((_ BitVec 256) Int (_ BitVec 6)) (_ BitVec 256))
(declare-fun sc_s (Int) (_ BitVec 6))
(declare-fun used_gas_t ((_ BitVec 256) Int) Int)
(declare-fun used_gas_s ((_ BitVec 256) Int) Int)
(assert
 (let (($x8368 (forall ((w (_ BitVec 256)) )(let ((?x4017 (storage_t w_4 2 w)))
 (let ((?x314 (storage_s w_4 3 w)))
 (= ?x314 ?x4017))))
 ))
 (let (($x8186 (exc_halt_t 2)))
 (let (($x8103 (exc_halt_s 3)))
 (let (($x5028 (= $x8103 $x8186)))
 (let (($x2477 (forall ((n (_ BitVec 6)) )(let ((?x11248 (sc_t 2)))
 (let (($x8371 (bvsle ?x11248 n)))
 (let ((?x6237 (stack_t w_4 2 n)))
 (let ((?x1815 (stack_s w_4 3 n)))
 (let (($x488 (= ?x1815 ?x6237)))
 (or $x488 $x8371)))))))
 ))
 (let ((?x11248 (sc_t 2)))
 (let ((?x3851 (sc_s 3)))
 (let (($x3854 (= ?x3851 ?x11248)))
 (let ((?x7809 (used_gas_t w_4 0)))
 (let ((?x7625 (used_gas_s w_4 0)))
 (let (($x587 (= ?x7625 ?x7809)))
 (let (($x1202 (forall ((w (_ BitVec 256)) )(let ((?x3573 (storage_t w_4 0 w)))
 (let ((?x4528 (storage_s w_4 0 w)))
 (= ?x4528 ?x3573))))
 ))
 (let (($x56 (exc_halt_t 0)))
 (let (($x57 (exc_halt_s 0)))
 (let (($x58 (= $x57 $x56)))
 (let (($x9367 (forall ((n (_ BitVec 6)) )(let ((?x2268 (stack_t w_4 0 n)))
 (let ((?x4123 (stack_s w_4 0 n)))
 (let (($x10353 (= ?x4123 ?x2268)))
 (let ((?x63 (sc_t 0)))
 (let (($x7659 (bvsle ?x63 n)))
 (or $x7659 $x10353)))))))
 ))
 (let ((?x63 (sc_t 0)))
 (let ((?x72 (sc_s 0)))
 (let (($x73 (= ?x72 ?x63)))
 (let (($x5947 (not (= ((_ extract 6 6) (bvadd (_ bv1 7) (concat (_ bv0 1) (sc_t 1)))) (_ bv0 1)))))
 (let (($x4852 (exc_halt_t 1)))
 (let (($x11228 (= $x8186 (or $x4852 $x5947))))
 (let (($x2399 (forall ((w (_ BitVec 256)) )(let ((?x1068 (storage_t w_4 1 w)))
 (let ((?x4017 (storage_t w_4 2 w)))
 (= ?x4017 ?x1068))))
 ))
 (let (($x4460 (forall ((n (_ BitVec 6)) )(let ((?x9666 (sc_t 1)))
 (let (($x6584 (bvsle ?x9666 n)))
 (or (= (stack_t w_4 2 n) (stack_t w_4 1 n)) $x6584))))
 ))
 (let (($x902 (= ?x11248 (bvadd (_ bv1 6) (sc_t 1)))))
 (let (($x8663 (= $x4852 (or $x56 (not (= ((_ extract 6 6) (bvadd (_ bv1 7) (concat (_ bv0 1) ?x63))) (_ bv0 1)))))))
 (let (($x1524 (forall ((w (_ BitVec 256)) )(let ((?x3573 (storage_t w_4 0 w)))
 (let ((?x1068 (storage_t w_4 1 w)))
 (= ?x1068 ?x3573))))
 ))
 (let (($x7218 (forall ((n (_ BitVec 6)) )(let ((?x63 (sc_t 0)))
 (let (($x7659 (bvsle ?x63 n)))
 (or (= (stack_t w_4 1 n) (stack_t w_4 0 n)) $x7659))))
 ))
 (let ((?x9666 (sc_t 1)))
 (let (($x5368 (= ?x9666 (bvadd (_ bv1 6) ?x63))))
 (let (($x9252 (= $x8103 (or (exc_halt_s 2) (not (bvsle (_ bv0 6) (bvadd (_ bv62 6) (sc_s 2))))))))
 (let (($x5602 (forall ((w (_ BitVec 256)) )(let ((?x8730 (storage_s w_4 2 w)))
 (let ((?x314 (storage_s w_4 3 w)))
 (= ?x314 ?x8730))))
 ))
 (let (($x6362 (forall ((n (_ BitVec 6)) )(let ((?x2272 (sc_s 2)))
 (let ((?x5303 (bvadd (_ bv62 6) ?x2272)))
 (let (($x1494 (bvsle ?x5303 n)))
 (or $x1494 (= (stack_s w_4 3 n) (stack_s w_4 2 n)))))))
 ))
 (let ((?x2272 (sc_s 2)))
 (let (($x3963 (= ?x3851 ?x2272)))
 (let ((?x8276 (bvadd (_ bv63 6) ?x2272)))
 (let ((?x3304 (stack_s w_4 2 ?x8276)))
 (let (($x2967 (= (stack_s w_4 3 (bvadd (_ bv63 6) ?x3851)) (stack_s w_4 2 (bvadd (_ bv62 6) ?x2272)))))
 (let (($x8780 (exc_halt_s 1)))
 (let (($x4339 (not (= ((_ extract 6 6) (bvadd (_ bv1 7) (concat (_ bv0 1) (sc_s 1)))) (_ bv0 1)))))
 (let (($x10052 (exc_halt_s 2)))
 (let (($x141 (= $x10052 (or (not (bvsle (_ bv0 6) (bvadd (_ bv63 6) (sc_s 1)))) $x4339 $x8780))))
 (let (($x826 (forall ((w (_ BitVec 256)) )(let ((?x11904 (storage_s w_4 1 w)))
 (let ((?x8730 (storage_s w_4 2 w)))
 (= ?x8730 ?x11904))))
 ))
 (let (($x1466 (forall ((n (_ BitVec 6)) )(let ((?x154 (sc_s 1)))
 (let ((?x11468 (bvadd (_ bv63 6) ?x154)))
 (let (($x6662 (bvsle ?x11468 n)))
 (or $x6662 (= (stack_s w_4 2 n) (stack_s w_4 1 n)))))))
 ))
 (let (($x11361 (= ?x2272 (bvadd (_ bv1 6) (sc_s 1)))))
 (let ((?x154 (sc_s 1)))
 (let ((?x11468 (bvadd (_ bv63 6) ?x154)))
 (let ((?x9317 (stack_s w_4 1 ?x11468)))
 (let (($x8607 (= $x8780 (or $x57 (not (= ((_ extract 6 6) (bvadd (_ bv1 7) (concat (_ bv0 1) ?x72))) (_ bv0 1)))))))
 (let (($x11799 (forall ((w (_ BitVec 256)) )(let ((?x4528 (storage_s w_4 0 w)))
 (let ((?x11904 (storage_s w_4 1 w)))
 (= ?x11904 ?x4528))))
 ))
 (let (($x1096 (forall ((n (_ BitVec 6)) )(let ((?x72 (sc_s 0)))
 (let (($x949 (bvsle ?x72 n)))
 (or (= (stack_s w_4 1 n) (stack_s w_4 0 n)) $x949))))
 ))
 (let (($x6719 (= ?x154 (bvadd (_ bv1 6) ?x72))))
 (let (($x8013 (forall ((w (_ BitVec 256)) )(let ((?x4528 (storage_s w_4 0 w)))
 (= ?x4528 (_ bv0 256))))
 ))
 (let (($x8672 (= ?x7625 0)))
 (let (($x6704 (not $x57)))
 (let (($x4825 (= ?x72 (_ bv0 6))))
 (and $x4825 $x6704 $x8672 $x8013 (= (stack_s w_4 1 ?x72) w_4) (= (used_gas_s w_4 1) (+ 3 ?x7625)) $x6719 $x1096 $x11799 $x8607 (= ?x3304 ?x9317) (= (stack_s w_4 2 ?x11468) ?x9317) (= (used_gas_s w_4 2) (+ 3 (used_gas_s w_4 1))) $x11361 $x1466 $x826 $x141 $x2967 (= (stack_s w_4 3 (bvadd (_ bv62 6) ?x3851)) ?x3304) (= (used_gas_s w_4 3) (+ 3 (used_gas_s w_4 2))) $x3963 $x6362 $x5602 $x9252 (= (stack_t w_4 1 ?x63) w_4) (= (used_gas_t w_4 1) (+ 3 ?x7809)) $x5368 $x7218 $x1524 $x8663 (= (stack_t w_4 2 ?x9666) w_4) (= (used_gas_t w_4 2) (+ 3 (used_gas_t w_4 1))) $x902 $x4460 $x2399 $x11228 $x73 $x9367 $x58 $x1202 $x587 (not (and $x3854 $x2477 $x5028 $x8368))))))))))))))))))))))))))))))))))))))))))))))))))))))))))))
(check-sat)
(get-proof)
